NAME : americanRoadTrip-n50
COMMENT : Based on Staedter's list and Randy Olson's blog. Generated for OptaPlanner Examples with Google Maps by Geoffrey De Smet.
TYPE : TSP
DIMENSION : 50
EDGE_WEIGHT_TYPE : EUC_2D
NODE_COORD_SECTION
0 30.681803 -88.014426 "USS Alabama, Battleship Parkway, Mobile, AL"
1 36.106965 -112.112997 "Grand Canyon National Park, Arizona"
2 34.647037 -92.065143 "Toltec Mounds, Scott, AR"
3 36.576088 -120.987632 "San Andreas Fault, San Benito County, CA"
4 37.794781 -122.411715 "Cable Car Museum, 94108, 1201 Mason St, San Francisco, CA 94108"
5 38.840871 -105.042260 "Pikes Peak, Colorado"
6 41.766759 -72.701173 "The Mark Twain House & Museum, Farmington Avenue, Hartford, CT"
7 38.910832 -75.527670 "New Castle Historic District, Delaware"
8 38.897676 -77.036530 "White House, Pennsylvania Avenue Northwest, Washington, DC"
9 28.388333 -80.603611 "Cape Canaveral, FL"
10 31.056794 -82.272327 "Okefenokee Swamp Park, Okefenokee Swamp Park Road, Waycross, GA"
11 43.461858 -113.563131 "Craters of the Moon National Monument & Preserve, Arco, ID"
12 39.797519 -89.646184 "Lincoln Home National Historic Site Visitor Center, 426 South 7th Street, Springfield, IL"
13 38.566697 -86.617524 "West Baden Springs Hotel, West Baden Avenue, West Baden Springs, IN"
14 41.583218 -93.648542 "Terrace Hill, Grand Avenue, Des Moines, IA"
15 39.317245 -94.909536 "C. W. Parker Carousel Museum, South Esplanade Street, Leavenworth, KS"
16 37.186998 -86.100528 "Mammoth Cave National Park, Mammoth Cave Pkwy, Mammoth Cave, KY"
17 29.958443 -90.064411 "French Quarter, New Orleans, LA"
18 44.338556 -68.273335 "Acadia National Park, Maine"
19 38.978828 -76.490974 "Maryland State House, 100 State Cir, Annapolis, MD 21401"
20 42.372470 -71.056575 "USS Constitution, Boston, MA"
21 42.387579 -83.084943 "Olympia Entertainment, Woodward Avenue, Detroit, MI"
22 44.892850 -93.180627 "Fort Snelling, Tower Avenue, Saint Paul, MN"
23 32.346550 -90.849850 "Vicksburg National Military Park, Clay Street, Vicksburg, MS"
24 38.624691 -90.184776 "Gateway Arch, Washington Avenue, St Louis, MO"
25 48.759613 -113.787023 "Glacier National Park, West Glacier, MT"
26 42.425000 -98.158611 "Ashfall Fossil Bed, Royal, NE"
27 36.016066 -114.737732 "Hoover Dam, NV"
28 44.258120 -71.441189 "Omni Mount Washington Resort, Mount Washington Hotel Road, Bretton Woods, NH"
29 38.931843 -74.924184 "Congress Hall, Congress Place, Cape May, NJ 08204"
30 32.123169 -104.587450 "Carlsbad Caverns National Park, Carlsbad, NM"
31 40.689249 -74.044500 "Statue of Liberty, Liberty Island, NYC, NY"
32 35.908226 -75.675730 "Wright Brothers National Memorial Visitor Center, Manteo, NC"
33 48.000160 -104.041483 "Fort Union Trading Post National Historic Site, Williston, North Dakota 1804, ND"
34 39.174331 -84.524997 "Spring Grove Cemetery, Spring Grove Avenue, Cincinnati, OH"
35 34.457043 -97.012213 "Chickasaw National Recreation Area, 1008 W 2nd St, Sulphur, OK 73086"
36 45.711564 -121.519633 "Columbia River Gorge National Scenic Area, Oregon"
37 39.949610 -75.150282 "Liberty Bell, 6th Street, Philadelphia, PA"
38 41.469858 -71.298265 "The Breakers, Ochre Point Avenue, Newport, RI"
39 32.752348 -79.874692 "Fort Sumter National Monument, Sullivan's Island, SC"
40 43.879102 -103.459067 "Mount Rushmore National Memorial, South Dakota 244, Keystone, SD"
41 35.047691 -90.026049 "Graceland, Elvis Presley Boulevard, Memphis, TN"
42 29.425967 -98.486142 "The Alamo, Alamo Plaza, San Antonio, TX"
43 37.593038 -112.187090 "Bryce Canyon National Park, Hwy 63, Bryce, UT"
44 44.408948 -73.247227 "Shelburne Farms, Harbor Road, Shelburne, VT"
45 38.729314 -77.107386 "Mount Vernon, Fairfax County, Virginia"
46 46.550684 -119.488974 "Hanford Site, Benton County, WA"
47 37.801788 -80.445630 "Lost World Caverns, Lewisburg, WV"
48 43.141031 -90.070467 "Taliesin, County Road C, Spring Green, Wisconsin"
49 44.462085 -110.642441 "Yellowstone National Park, WY 82190"
EOF
